DIMENSION: 9
EDGE_WEIGHT_TYPE: EXPLICIT
EDGE_WEIGHT_FORMAT: FULL_MATRIX
EDGE_WEIGHT_SECTION:
32767 6 32767 27 88 10 32767 32767 80 
6 32767 32767 32767 47 32767 32767 84 32767 
32767 32767 32767 32767 32767 32767 32767 33 91 
27 32767 32767 32767 69 5 32767 32767 30 
88 47 32767 69 32767 32767 32767 53 32767 
10 32767 32767 5 32767 32767 60 32767 58 
32767 32767 32767 32767 32767 60 32767 42 32767 
32767 84 33 32767 53 32767 42 32767 32767 
80 32767 91 30 32767 58 32767 32767 32767 
EOF